30
2 1 8
3 1 6
3 2 5
4 0 10
4 2 7
5 3 10
6 2 6
6 3 2
7 1 9
7 3 7
7 4 10
7 5 5
7 6 3
8 4 10
9 0 4
9 2 4
9 3 6
9 5 5
9 6 1
9 7 6
10 2 5
10 3 10
10 4 3
10 5 10
10 8 2
10 9 1
11 2 6
11 6 7
11 7 6
11 9 5
11 10 10
12 2 2
12 3 8
12 4 7
12 5 7
12 7 2
12 8 4
12 9 5
12 11 9
13 2 4
13 3 2
13 8 8
13 11 8
14 0 5
14 6 7
14 7 1
14 8 10
15 4 2
15 5 4
15 6 7
15 7 1
15 9 7
15 10 1
15 11 10
15 12 5
16 0 6
16 2 3
16 4 1
16 8 7
16 9 5
17 1 3
17 2 3
17 4 2
17 5 1
17 7 7
17 11 2
17 12 7
17 13 1
17 14 10
17 15 4
18 1 10
18 2 8
18 3 3
18 4 5
18 6 2
18 7 4
18 9 7
18 10 4
18 11 7
18 14 4
18 15 10
18 16 8
19 8 5
19 9 1
19 12 2
19 13 7
19 14 1
19 15 4
19 16 2
19 17 3
19 18 3
20 5 4
20 6 5
20 9 2
20 10 1
20 14 4
20 17 6
20 18 6
21 3 6
21 4 1
21 6 6
21 7 1
21 11 6
21 12 7
21 16 9
21 17 7
22 1 9
22 3 10
22 6 8
22 8 4
22 10 5
22 12 1
22 13 5
22 14 5
22 15 3
22 16 7
22 20 10
22 21 10
23 1 3
23 2 6
23 5 7
23 7 9
23 9 1
23 10 8
23 11 9
23 13 3
23 14 7
23 16 3
23 17 5
23 21 10
24 2 9
24 4 5
24 7 8
24 8 10
24 10 6
24 11 10
24 12 8
24 13 10
24 14 8
24 18 9
24 21 7
24 22 8
24 23 10
25 0 1
25 2 6
25 7 3
25 10 2
25 12 6
25 13 10
25 15 3
25 16 8
25 18 9
25 21 2
25 22 6
25 23 9
25 24 10
26 1 3
26 3 1
26 4 6
26 5 9
26 6 2
26 8 1
26 10 9
26 12 4
26 14 4
26 15 8
26 16 6
26 18 8
26 19 5
26 21 9
26 22 3
27 0 6
27 2 2
27 5 5
27 10 9
27 13 5
27 14 10
27 16 7
27 22 5
27 24 7
27 26 4
28 2 7
28 5 2
28 6 4
28 7 1
28 9 8
28 10 8
28 11 1
28 18 3
28 19 3
28 22 2
28 24 2
28 27 9
29 3 10
29 5 8
29 6 3
29 7 7
29 9 8
29 10 4
29 11 5
29 12 5
29 13 7
29 15 6
29 16 9
29 17 7
29 19 2
29 22 4
29 23 8
29 25 8
29 27 4
